100
    1    24    24
    2    47    47
    3    21    21
    4    33    33
    5    11    11
    6    25    25
    7     8     8
    8     9     9
    9    35    35
   10    14    14
   11    42    42
   12    48    48
   13    10    10
   14    34    34
   15    20    20
   16     4     4
   17    34    34
   18    45    45
   19    39    39
   20    43    43
   21     6     6
   22    50    50
   23    16    16
   24    32    32
   25    19    19
   26    12    12
   27    39    39
   28    35    35
   29    33    33
   30    36    36
   31    27    27
   32     9     9
   33    46    46
   34    35    35
   35    11    11
   36    49    49
   37    28    28
   38    27    27
   39    33    33
   40    16    16
   41    26    26
   42     4     4
   43     4     4
   44    30    30
   45    29    29
   46    27    27
   47    39    39
   48    29    29
   49     7     7
   50    20    20
   51    27    27
   52     3     3
   53    33    33
   54     7     7
   55    26    26
   56    20    20
   57    24    24
   58    23    23
   59    12    12
   60    27    27
   61    46    46
   62    40    40
   63    20    20
   64    25    25
   65    32    32
   66    39    39
   67    16    16
   68     6     6
   69    45    45
   70    30    30
   71    10    10
   72     4     4
   73    23    23
   74    46    46
   75    35    35
   76    44    44
   77    23    23
   78     1     1
   79    17    17
   80    26    26
   81     8     8
   82    17    17
   83    38    38
   84    18    18
   85    39    39
   86     2     2
   87    20    20
   88    14    14
   89    48    48
   90    39    39
   91    45    45
   92    46    46
   93    26    26
   94     9     9
   95    26    26
   96    17    17
   97    38    38
   98     9     9
   99    13    13
  100    30    30
1276
